1262
0	91	188	197	263	333	344	406	509	572
29	98	188	263	278	389	417	463	509	605
0	154	239	345	419	509	581	593	682	727
169	250	362	442	541	553	605	690	799	821
0	72	250	272	347	373	635	690	821	911
14	272	344	434	656	727	799	846	911	917
274	325	373	434	463	519	540	704	793	823
197	239	417	540	614	682	793	893	942	978
78	320	529	614	665	941	964	1004	1093	1119
463	548	561	770	812	952	1028	1075	1127	1217
